c Generated map
c Size: 9 * 9, weights in range: 1 to 10, walls: True, with ratio 0.1
c dim 5 of 7
c
p sp 81 117
c graph contains 81 nodes and 117 arcs
c
a 1 10 10
a 10 1 10
a 1 2 1
a 2 1 1
a 2 11 7
a 11 2 7
a 2 3 8
a 3 2 8
a 3 12 9
a 12 3 9
a 3 4 7
a 4 3 7
a 4 13 5
a 13 4 5
a 4 5 2
a 5 4 2
a 5 14 4
a 14 5 4
a 5 6 3
a 6 5 3
a 6 15 2
a 15 6 2
a 6 7 9
a 7 6 9
a 7 16 8
a 16 7 8
a 7 8 8
a 8 7 8
a 8 17 7
a 17 8 7
a 8 9 7
a 9 8 7
a 9 18 3
a 18 9 3
a 10 19 8
a 19 10 8
a 10 11 5
a 11 10 5
a 11 20 1
a 20 11 1
a 11 12 3
a 12 11 3
a 12 21 8
a 21 12 8
a 12 13 9
a 13 12 9
a 13 22 6
a 22 13 6
a 13 14 5
a 14 13 5
a 14 23 1
a 23 14 1
a 14 15 10
a 15 14 10
a 15 24 3
a 24 15 3
a 15 16 7
a 16 15 7
a 16 17 8
a 17 16 8
a 17 26 9
a 26 17 9
a 17 18 4
a 18 17 4
a 18 27 7
a 27 18 7
a 19 28 8
a 28 19 8
a 19 20 9
a 20 19 9
a 20 29 10
a 29 20 10
a 20 21 2
a 21 20 2
a 21 30 5
a 30 21 5
a 21 22 3
a 22 21 3
a 22 31 2
a 31 22 2
a 22 23 5
a 23 22 5
a 23 32 2
a 32 23 2
a 23 24 1
a 24 23 1
a 24 33 2
a 33 24 2
a 26 35 8
a 35 26 8
a 26 27 8
a 27 26 8
a 27 36 4
a 36 27 4
a 28 37 2
a 37 28 2
a 28 29 6
a 29 28 6
a 29 38 3
a 38 29 3
a 29 30 6
a 30 29 6
a 30 39 2
a 39 30 2
a 30 31 10
a 31 30 10
a 31 32 2
a 32 31 2
a 32 33 6
a 33 32 6
a 33 42 7
a 42 33 7
a 33 34 1
a 34 33 1
a 34 43 1
a 43 34 1
a 34 35 3
a 35 34 3
a 35 44 4
a 44 35 4
a 35 36 3
a 36 35 3
a 37 46 6
a 46 37 6
a 37 38 2
a 38 37 2
a 38 39 2
a 39 38 2
a 39 48 4
a 48 39 4
a 42 51 10
a 51 42 10
a 42 43 3
a 43 42 3
a 43 52 7
a 52 43 7
a 43 44 4
a 44 43 4
a 44 53 3
a 53 44 3
a 46 55 6
a 55 46 6
a 48 57 10
a 57 48 10
a 48 49 2
a 49 48 2
a 49 58 7
a 58 49 7
a 49 50 2
a 50 49 2
a 50 59 5
a 59 50 5
a 50 51 9
a 51 50 9
a 51 60 8
a 60 51 8
a 51 52 9
a 52 51 9
a 52 61 5
a 61 52 5
a 52 53 2
a 53 52 2
a 53 62 9
a 62 53 9
a 53 54 2
a 54 53 2
a 54 63 4
a 63 54 4
a 55 64 2
a 64 55 2
a 55 56 6
a 56 55 6
a 56 65 3
a 65 56 3
a 56 57 9
a 57 56 9
a 57 66 7
a 66 57 7
a 57 58 3
a 58 57 3
a 58 67 10
a 67 58 10
a 58 59 8
a 59 58 8
a 59 60 8
a 60 59 8
a 60 61 9
a 61 60 9
a 61 70 8
a 70 61 8
a 61 62 7
a 62 61 7
a 62 71 2
a 71 62 2
a 62 63 8
a 63 62 8
a 63 72 8
a 72 63 8
a 64 73 1
a 73 64 1
a 64 65 3
a 65 64 3
a 65 74 10
a 74 65 10
a 65 66 9
a 66 65 9
a 66 75 9
a 75 66 9
a 66 67 4
a 67 66 4
a 67 76 1
a 76 67 1
a 70 79 5
a 79 70 5
a 70 71 4
a 71 70 4
a 71 80 1
a 80 71 1
a 71 72 3
a 72 71 3
a 72 81 9
a 81 72 9
a 73 74 3
a 74 73 3
a 74 75 10
a 75 74 10
a 75 76 7
a 76 75 7
a 78 79 4
a 79 78 4
a 79 80 9
a 80 79 9
a 80 81 4
a 81 80 4
